
  32   50
  22   10   11   13   11   10   21   11   13   14   11    9    9   19   10    4   13   17    0   11    5   11   10   13   16   17    8    7   15   14    6   12    0    0    0    0    0    0    0    0    0    0    0    0    0    0    0    0    0    0

   0   0   0   0   0   0   0   0   0   0   0   0   0   0   0   0   0   0   0   0   0   0   0   0   0   0   0   0   0   0   0   0   0   0   0   0   0   0   0   0   0   0   0   0   0   0   0   0   0   0   0  11 2 3 4 5 6 10 11 12 16 19 31 
   6   0   0   0   0   0   0   0   0   0   0  10   0   0   7   0   0   0   2   0   0   0   0   0   0   0   0   0   0   0   0   0   0   0   0   0   0   0   0   0   0   0   0   0   0   0   0   0   0   0   0   5 24 15 13 9 7 
   8   9   0   0   5   0   0   0   0   0   0   0   0   0   0   0   0   0   0   0   0   0   4   0   0   0  10   0   0   0   0   0   0   0   0   0   0   0   0   0   0   0   0   0   0   0   0   0   0   0   0   5 24 22 18 13 8 
   8   9   0  10   0   0   0   0   6   0   0   0   0   9   0   0   0   0   0   0   0   0   0   0   0   0   0   0   0   0   0   4   0   0   0   0   0   0   0   0   0   0   0   0   0   0   0   0   0   0   0   7 29 23 22 21 17 14 13 
  10   0   3   2   0   0   0   1   0   0   0   2   0   0   0   0   0   0   0   0   0   0   0   0   0   6   0   0   6   0   0   0   0   0   0   0   0   0   0   0   0   0   0   0   0   0   0   0   0   0   0   3 15 14 7 
   4   0   0   0   0   0   0   0   0   0  10   0   0   0   0   0   0   0   0   0   0   0   9   0   8   5   0   2   0   0   0   0   8   0   0   0   0   0   0   0   0   0   0   0   0   0   0   0   0   0   0   5 30 21 20 15 14 
   6   0   0   1   0   7   0   0   7   0   0   0   0   0   0   0   0   0   0   0   0   0   0   0   0   0   0   0   4   0   0   0   0   0   0   0   0   0   0   0   0   0   0   0   0   0   0   0   0   0   0   7 30 29 28 27 23 22 21 
   6   0   0   0   0   0   0   0   0   0   0   0   0   0   0   0   0   5   0   0   0   0   0   0   0   0   3   0   0   0   6   0   8   0   0   0   0   0   0   0   0   0   0   0   0   0   0   0   0   0   0   4 29 21 17 14 
   5   5   1   0   0   0   0   0   0   0   0   0   4   0   9   0   0   0   0   0   0   0   0   0   0   0   0   0   0   0   0   0   7   0   0   0   0   0   0   0   0   0   0   0   0   0   0   0   0   0   0   3 29 22 14 
   6   3   0   0   0   0   0   0   0   5   0   0   0   0   3   0   0   0   0   0   0   0   0   0   8   0   0   0   0   9   0   0   0   0   0   0   0   0   0   0   0   0   0   0   0   0   0   0   0   0   0   5 30 28 27 26 21 
   4   0   0   0   0   0   9   0   8   0   0   0   0   0   0   0   0   0  10   0   0   0   0   0   0   0   0   0   0   0   9   0   0   0   0   0   0   0   0   0   0   0   0   0   0   0   0   0   0   0   0   5 29 28 27 26 21 
   1   0   0   0   0   0   0   0   0   0   0   0   0   0   4   0   0   0   0   0   0   0   0   0   0   7   0   0   1   0   0   0   0   0   0   0   0   0   0   0   0   0   0   0   0   0   0   0   0   0   0   2 22 14 
   9   0   4   0   0   0   0   0   0   0   6   0   0   0   0   0   0   0   0   0   3   0   0   0   0   0   6   3   0   0   7   0   0   0   0   0   0   0   0   0   0   0   0   0   0   0   0   0   0   0   0   4 30 27 26 25 
   1   0   0   0   0   0   0  10   0   0   0   0   0   0   0   0   0   0   0   0   0   0   5   0   0   0   4   0   0   0   3   0   0   0   0   0   0   0   0   0   0   0   0   0   0   0   0   0   0   0   0   3 28 27 25 
   7   0   0   0   0   0   0   0   0   0   0   0   0   0   0   9   0   0   0   0   0   0   0  10   0   0   0   0   0   0   0   0   0   0   0   0   0   0   0   0   0   0   0   0   0   0   0   0   0   0   0   2 27 23 
   8   0   0   0  10   0   0   0   0   2   1   0   0   0   0   0   0   0   0   0   4   0   0   0   0   0   0   0   0   0   5   0   0   0   0   0   0   0   0   0   0   0   0   0   0   0   0   0   0   0   0   2 26 21 
   6   0   6   0   0   0   0   0   0   0   0   0   0   0   0   0   4   0   1   0   9   0   0   0   1   0   2   2   0   0   8   0   7   0   0   0   0   0   0   0   0   0   0   0   0   0   0   0   0   0   0   2 27 25 
   4   7   0   0   0   0   0   1   0   1   0   0   0   5   0   3   0  10   0   0   0   0   0   0   0   0   0   0   0   0   0   0   0   0   0   0   0   0   0   0   0   0   0   0   0   0   0   0   0   0   0   2 26 25 
   1   0   9   0   0   8   0   0   0   0   0   0   0   0  10   0   0   0  10   0   1   0   0   0   0   3   0   0   0   0   0   0   0   0   0   0   0   0   0   0   0   0   0   0   0   0   0   0   0   0   0   2 26 25 
   2   8   8   0   0   8   0   0   0   0   0   0   0   0   0   0   0   0   0   0   6   0   1   0   0   0   0   0   0   0   0   0   0   0   0   0   0   0   0   0   0   0   0   0   0   0   0   0   0   0   0   1 22 
   7   0   0   0   0   1   0   0   0   0   0   0   0   7   0   0   0   0   0   0   0   0   0   0   0   0   6   0   0   0   0   0   0   0   0   0   0   0   0   0   0   0   0   0   0   0   0   0   0   0   0   1 25 
   1   7   0   3   0   0   0   0   0   0   0   0   0   0   0   0   0   0   0   0   1   0   0   1   0   0   0   5   0   0   0   0   0   0   0   0   0   0   0   0   0   0   0   0   0   0   0   0   0   0   0   1 26 
   7   0   0   0   0   0   0  10   0   4   0   0   0   0   0   0   0   0   0   0   3   0   0   0   4   6   0   0   0   0   0   0   3   0   0   0   0   0   0   0   0   0   0   0   0   0   0   0   0   0   0   1 25 
   4   0   0   0   0   0   0   0   0   0   0   0   0   0   0   0   0   0   0   0   0   0   0   0   0   0   0   0   3   0   0   6   0   0   0   0   0   0   0   0   0   0   0   0   0   0   0   0   0   0   0   1 28 
   6   0   0   0   0   0   0   0   0   0   0   0   0   0   5   0   0   0   0   0   0   0   0   0   0   0   0   0   2   0   0   0   0   0   0   0   0   0   0   0   0   0   0   0   0   0   0   0   0   0   0   1 32
   9   2   0   0   0   9  10   9   0   0   0   0   0   0   0   0   0   0   4   0   0   0   0  10   0   2   0   0   0   0   0   0   0   0   0   0   0   0   0   0   0   0   0   0   0   0   0   0   0   0   0   1 32
   5  10   0   0   0   0   0   0   0   0   0   0   9   1   0   7   0   0   0   0   0   0   0   0   0   0   0   1   0   0   0   0   0   0   0   0   0   0   0   0   0   0   0   0   0   0   0   0   0   0   0   1 32
   8   0   0   4   0   3   0   8   0   0   7   0   0   0   0   0   0   0   0   0   0   0   0   0   0   0   8   0   0   0   0   0   0   0   0   0   0   0   0   0   0   0   0   0   0   0   0   0   0   0   0   1 32
   4   0   0   0   0   0   0   0   0   0   0   0   0   0   0   0   1   0   0   0   0   0   0   0   0   0   0   0   0   0   0   0   0   0   0   0   0   0   0   0   0   0   0   0   0   0   0   0   0   0   0   1 32
   1   0   1   0   0   0   0   0   0   0  10   0   0   0   0   0   0   0  10   0   0   5   0   0   0   0   0   0   0   8   0   0   0   0   0   0   0   0   0   0   0   0   0   0   0   0   0   0   0   0   0   1 32
   4   0   0   0   0   3   0   0   0   9   0   0   0   0   0   0   0   0   0   0   0   0   0   0   0   0   4   0   0  10   0   0   0   0   0   0   0   0   0   0   0   0   0   0   0   0   0   0   0   0   0   1 32
   0   0   0   0   0   0   0   0   0   0   0   0   0   0   0   0   0   0   0   0   0   0   0   0   0   0   0   0   0   0   0   0   0   0   0   0   0   0   0   0   0   0   0   0   0   0   0   0   0   0   0   0 
